51 6
15 10 10 10 10 13
1 0 0 0 0 0 0 3 2 3 4
7 0 0 0 0 0 2 4 5 6 7 8
1 0 0 0 10 0 7 4 51 6 7 8
1 3 0 0 1 0 8 4 5 6 7 8
6 6 0 0 0 1 10 4 9 10 11 12
2 10 0 0 9 5 1 3 10 11 12
1 0 0 0 0 0 0 3 9 10 12
7 0 5 0 0 9 1 3 9 10 12
3 8 0 0 0 0 2 4 13 14 15 16
3 0 2 0 0 0 0 4 13 14 15 16
3 7 6 0 0 7 6 4 13 14 15 16
8 0 1 3 0 3 2 4 13 14 15 16
9 6 0 0 0 0 0 4 17 18 19 20
1 0 8 0 0 4 0 4 17 18 19 20
6 0 6 0 0 4 6 3 17 18 19
5 9 0 0 2 0 1 2 18 19
2 8 0 0 0 0 5 4 21 22 23 24
1 9 0 0 9 0 8 3 21 22 23
6 4 9 6 2 6 6 4 21 22 23 24
1 10 1 0 1 1 1 4 21 22 23 24
1 0 0 0 0 0 7 4 25 26 27 28
7 7 9 3 0 3 9 4 25 26 27 28
1 0 9 0 0 6 3 4 25 26 27 28
1 4 4 0 0 6 0 4 25 26 27 28
1 0 2 0 0 0 7 3 29 31 32
10 10 8 10 0 10 0 4 29 30 31 32
2 10 3 5 1 0 0 2 29 32
1 4 0 9 0 0 0 4 29 30 31 32
8 4 1 0 2 7 6 3 34 35 36
1 2 0 2 1 4 0 3 33 34 36
1 0 5 6 0 3 6 2 34 36
2 10 2 5 0 0 0 3 34 35 36
7 6 0 0 0 9 1 4 37 38 39 40
8 2 0 0 0 0 5 4 37 38 39 40
2 5 0 1 10 0 0 3 37 39 40
3 8 10 0 6 0 10 3 38 39 40
7 8 0 3 0 0 9 2 42 44
3 0 4 0 10 1 0 4 41 42 43 44
9 0 0 0 0 8 0 4 41 42 43 44
6 0 0 10 5 1 6 3 41 42 44
9 0 2 9 4 0 0 4 45 46 47 48
1 7 4 2 0 2 0 3 46 47 48
1 0 1 0 6 0 0 3 46 47 48
5 0 9 0 0 0 0 3 45 46 48
10 5 0 0 0 7 1 1 49
1 0 0 0 8 0 10 2 49 50
1 0 0 1 1 0 0 1 49
4 10 0 0 0 0 10 1 49
2 0 10 6 0 0 0 1 51
5 0 1 0 10 10 0 1 51
0 0 0 0 0 0 0 0
